
******************************************************************************
This program contains Ipopt, a library for large-scale nonlinear optimization.
 Ipopt is released as open source code under the Eclipse Public License (EPL).
         For more information visit http://projects.coin-or.org/Ipopt
******************************************************************************

This is Ipopt version 3.12.13, running with linear solver ma57.

Starting derivative checker for first derivatives.


No errors detected by derivative checker.

Number of nonzeros in equality constraint Jacobian...:        0
Number of nonzeros in inequality constraint Jacobian.:     9144
Number of nonzeros in Lagrangian Hessian.............:       21

Total number of variables............................:        6
                     variables with only lower bounds:        0
                variables with lower and upper bounds:        6
                     variables with only upper bounds:        0
Total number of equality constraints.................:        0
Total number of inequality constraints...............:     1524
        inequality constraints with only lower bounds:        0
   inequality constraints with lower and upper bounds:        0
        inequality constraints with only upper bounds:     1524

iter    objective    inf_pr   inf_du lg(mu)  ||d||  lg(rg) alpha_du alpha_pr  ls
   0  9.0015470e-02 0.00e+00 9.75e+00   0.0 0.00e+00    -  0.00e+00 0.00e+00   0
   1  8.9675171e-02 0.00e+00 3.00e-02  -5.1 2.70e-03    -  9.70e-01 1.00e+00f  1
   2  8.2962060e-02 0.00e+00 1.09e-02  -2.7 1.75e-01    -  6.37e-01 7.31e-01h  1
   3  7.8859894e-02 0.00e+00 3.57e-04  -3.0 3.77e-02    -  9.90e-01 1.00e+00h  1
   4  7.1265072e-02 0.00e+00 1.80e-04  -3.3 1.00e-01    -  9.98e-01 1.00e+00h  1
   5  6.9848435e-02 0.00e+00 3.04e-05  -4.2 3.30e-02    -  9.99e-01 1.00e+00h  1
   6  6.9329273e-02 0.00e+00 6.31e-08  -5.7 2.29e-02    -  1.00e+00 1.00e+00h  1
   7  6.9268833e-02 0.00e+00 2.21e-12  -7.8 5.80e-03    -  1.00e+00 1.00e+00h  1
   8  6.9267456e-02 0.00e+00 1.03e-09 -11.0 2.23e-04    -  1.00e+00 1.00e+00h  1

Number of Iterations....: 8

                                   (scaled)                 (unscaled)
Objective...............:   6.9267455903570849e-02    6.9267455903570849e-02
Dual infeasibility......:   1.0265863469131567e-09    1.0265863469131567e-09
Constraint violation....:   0.0000000000000000e+00    0.0000000000000000e+00
Complementarity.........:   1.6110516491829760e-09    1.6110516491829760e-09
Overall NLP error.......:   1.6110516491829760e-09    1.6110516491829760e-09


Number of objective function evaluations             = 9
Number of objective gradient evaluations             = 9
Number of equality constraint evaluations            = 0
Number of inequality constraint evaluations          = 9
Number of equality constraint Jacobian evaluations   = 0
Number of inequality constraint Jacobian evaluations = 9
Number of Lagrangian Hessian evaluations             = 8
Total CPU secs in IPOPT (w/o function evaluations)   =      0.041
Total CPU secs in NLP function evaluations           =      0.020

EXIT: Optimal Solution Found.
